# Solution for model r3_t27_m7_7
# Finished Task: 27 / 27
# Makespan: 775.0, Total Distance: 1038.0, Total Time: 2.5496
# R O S F
0 0 5 0.0 0.0
1 1 28 0.0 0.0
2 2 18 0.0 0.0
3 0 9 623.0 650.0
4 2 22 399.0 438.0
5 0 11 136.0 167.0
6 0 15 382.0 418.0
7 2 29 566.0 603.0
8 1 19 491.0 520.0
9 0 -1 713.0 748.0
10 1 8 419.0 447.0
11 0 6 289.0 324.0
12 2 21 275.0 314.0
13 2 -1 672.0 699.0
14 1 20 649.0 671.0
15 0 25 447.0 468.0
16 1 -1 749.0 775.0
17 1 23 305.0 339.0
18 2 12 153.0 181.0
19 1 26 534.0 572.0
20 1 16 708.0 736.0
21 2 4 368.0 399.0
22 2 24 438.0 477.0
23 1 10 365.0 402.0
24 2 7 544.0 566.0
25 0 3 540.0 562.0
26 1 14 591.0 625.0
27 1 17 177.0 203.0
28 1 27 49.0 80.0
29 2 13 618.0 644.0
